Cost: 329
0-6-0
0-26-12-39-9-32-17-0
0-16-49-23-43-42-22-28-2-30-0
0-4-45-29-48-5-27-34-0
0-7-35-19-14-11-38-10-0
Cost: 329
0-6-0
0-26-12-39-9-32-17-0
0-16-49-23-43-42-22-28-2-30-0
0-4-45-29-48-5-27-34-0
0-7-35-19-14-11-38-10-0
Cost: 329
0-6-0
0-26-12-39-9-32-17-0
0-16-49-23-43-42-22-28-2-30-0
0-4-45-29-48-5-27-34-0
0-7-35-19-14-11-38-10-0
Cost: 329
0-6-0
0-26-12-39-9-32-17-0
0-16-49-23-43-42-22-28-2-30-0
0-4-45-29-48-5-27-34-0
0-7-35-19-14-11-38-10-0
Cost: 329
0-6-0
0-26-12-39-9-32-17-0
0-16-49-23-43-42-22-28-2-30-0
0-4-45-29-48-5-27-34-0
0-7-35-19-14-11-38-10-0
Cost: 329
0-6-0
0-26-12-39-9-32-17-0
0-16-49-23-43-42-22-28-2-30-0
0-4-45-29-48-5-27-34-0
0-7-35-19-14-11-38-10-0
Cost: 329
0-6-0
0-26-12-39-9-32-17-0
0-16-49-23-43-42-22-28-2-30-0
0-4-45-29-48-5-27-34-0
0-7-35-19-14-11-38-10-0
Cost: 329
0-6-0
0-26-12-39-9-32-17-0
0-16-49-23-43-42-22-28-2-30-0
0-4-45-29-48-5-27-34-0
0-7-35-19-14-11-38-10-0
Cost: 329
0-6-0
0-26-12-39-9-32-17-0
0-16-49-23-43-42-22-28-2-30-0
0-4-45-29-48-5-27-34-0
0-7-35-19-14-11-38-10-0
Cost: 329
0-6-0
0-26-12-39-9-32-17-0
0-16-49-23-43-42-22-28-2-30-0
0-4-45-29-48-5-27-34-0
0-7-35-19-14-11-38-10-0
Cost: 329
0-7-35-19-14-11-38-10-0
0-6-0
0-16-49-23-43-42-22-28-2-30-0
0-26-12-39-9-32-17-0
0-34-27-5-48-29-45-4-0
Cost: 329
0-7-35-19-14-11-38-10-0
0-6-0
0-16-49-23-43-42-22-28-2-30-0
0-26-12-39-9-32-17-0
0-34-27-5-48-29-45-4-0
Cost: 329
0-7-35-19-14-11-38-10-0
0-6-0
0-16-49-23-43-42-22-28-2-30-0
0-26-12-39-9-32-17-0
0-34-27-5-48-29-45-4-0
Cost: 329
0-7-35-19-14-11-38-10-0
0-6-0
0-16-49-23-43-42-22-28-2-30-0
0-26-12-39-9-32-17-0
0-34-27-5-48-29-45-4-0
Cost: 329
0-7-35-19-14-11-38-10-0
0-6-0
0-16-49-23-43-42-22-28-2-30-0
0-26-12-39-9-32-17-0
0-34-27-5-48-29-45-4-0
Cost: 329
0-7-35-19-14-11-38-10-0
0-6-0
0-16-49-23-43-42-22-28-2-30-0
0-26-12-39-9-32-17-0
0-34-27-5-48-29-45-4-0
Cost: 329
0-7-35-19-14-11-38-10-0
0-6-0
0-16-49-23-43-42-22-28-2-30-0
0-26-12-39-9-32-17-0
0-34-27-5-48-29-45-4-0
Cost: 329
0-7-35-19-14-11-38-10-0
0-6-0
0-16-49-23-43-42-22-28-2-30-0
0-26-12-39-9-32-17-0
0-34-27-5-48-29-45-4-0
Cost: 329
0-7-35-19-14-11-38-10-0
0-6-0
0-16-49-23-43-42-22-28-2-30-0
0-26-12-39-9-32-17-0
0-34-27-5-48-29-45-4-0
Cost: 329
0-7-35-19-14-11-38-10-0
0-6-0
0-16-49-23-43-42-22-28-2-30-0
0-26-12-39-9-32-17-0
0-34-27-5-48-29-45-4-0
Cost: 329
0-7-35-19-14-11-38-10-0
0-6-0
0-16-49-23-43-42-22-28-2-30-0
0-26-12-39-9-32-17-0
0-34-27-5-48-29-45-4-0
Cost: 329
0-7-35-19-14-11-38-10-0
0-6-0
0-16-49-23-43-42-22-28-2-30-0
0-26-12-39-9-32-17-0
0-34-27-5-48-29-45-4-0
Cost: 329
0-12-39-9-32-3-6-0
0-26-0
0-10-38-11-14-19-35-7-0
0-30-48-5-29-45-27-34-0
0-2-28-22-42-43-23-49-16-17-0
Cost: 329
0-7-35-19-14-11-38-10-0
0-6-0
0-16-49-23-43-42-22-28-2-30-0
0-26-12-39-9-32-17-0
0-34-27-5-48-29-45-4-0
Cost: 329
0-7-35-19-14-11-38-10-0
0-6-0
0-16-49-23-43-42-22-28-2-30-0
0-26-12-39-9-32-17-0
0-34-27-5-48-29-45-4-0
Cost: 329
0-7-35-19-14-11-38-10-0
0-6-0
0-16-49-23-43-42-22-28-2-30-0
0-26-12-39-9-32-17-0
0-34-27-5-48-29-45-4-0
Cost: 329
0-26-0
0-6-3-32-9-39-12-0
0-17-16-49-23-43-42-22-28-2-0
0-7-35-19-14-11-38-10-0
0-34-27-45-29-5-48-30-0
Cost: 329
0-10-38-11-14-19-35-7-0
0-17-40-32-9-12-26-0
0-34-27-5-48-29-45-4-0
0-16-49-23-43-42-22-28-2-30-0
0-6-0
Cost: 329
0-6-0
0-4-48-5-29-45-27-34-0
0-26-12-39-9-32-17-0
0-7-35-19-14-11-38-10-0
0-30-2-28-22-42-43-23-49-16-0
Cost: 329
0-6-0
0-17-32-9-39-12-26-0
0-16-49-23-43-42-22-28-2-30-0
0-7-35-19-14-11-38-10-0
0-4-48-5-29-45-27-34-0
Cost: 329
0-17-40-32-9-12-26-0
0-30-2-28-22-42-43-23-49-16-0
0-34-27-5-48-29-45-4-0
0-6-0
0-7-35-19-14-11-38-10-0
